(set-logic BV) (define-fun origCir ((n142 Bool) (n106 Bool) (i_13 Bool) (n141 Bool)) Bool (and (xor (and n106 i_13) n142) n141)) (synth-fun skel ((n142 Bool) (n106 Bool) (i_13 Bool) (n141 Bool)) Bool) (declare-var n142 Bool) (declare-var n106 Bool) (declare-var i_13 Bool) (declare-var n141 Bool) (constraint (= (origCir n142 n106 i_13 n141) (skel n142 n106 i_13 n141))) (check-synth)
